HUN,8,6,572
0,11,2,7,1,19,4,22,5,12,3,3
0,30,1,5,2,7,3,14,4,17,5,20
0,16,2,11,1,5,4,25,5,17,3,10
2,2,0,15,1,30,4,12,5,4,3,23
0,18,2,29,1,15,4,6,5,18,3,18
1,23,0,10,2,17,4,7,5,5,3,27
1,19,2,15,0,1,4,5,3,29,5,23
0,15,2,6,1,16,4,26,5,24,3,17
